(set-logic QF_S)
(declare-fun G () String)
(declare-fun F () String)
(declare-fun E () String)
(declare-fun C () String)
(assert (= (str.++  "baefbcbacdeccee" F "cdbfefdfcdcfb")  (str.++  "baefbcbacdecceecfffdb" G E "bfcfafdabefcdbfefdfcdcfb") ))
(assert (= (str.++  "beadbdcac" G "ebcbdcaefbbeefffcdccdebafbfdbfbadaebcebabd")  (str.++  "beadbdcac" G "ebcbdcaefbbeefffcdccdebafbfdbfbadaebcebabd") ))
(assert (= (str.++  "ccadcadcebfbbdbbeeceacdabaedbecfdfeddbefbcdcffbaedcfbcf" "")  (str.++  "ccadcadcebfbbdbbeeceacdabae" G "fdfeddbefbcdcffbaedcfbcf") ))
(assert (= (str.++  "deebadfbddcfebeeacabcffbbc" G "fbdacecaaddeddefefaabedde")  (str.++  "deebadfbddcfebeeacabcffbbc" G "fbdacecaaddeddefefaabedde") ))
(assert (= (str.++  "dbecdaebfadfadacfdddbeabccbadafddcfcaeacfcaffecbcaadcad" "")  (str.++  G "daebfadfadacfdddbeabccbadafddcfcaeacfcaffecbcaadcad" "") ))
(assert (= (str.++  "cafffcccdecbccbeeddfdbeccefbdfaeffaedecdcbdfdceaedfaecb" "")  (str.++  "cafffcccdecbccbeeddf" G "cefbdfaeffaedecdcbdfdceaedfaecb") ))
(assert (= (str.++  "ededfdabfcffabfbcabfeaadbeeddafaecbbcbd" G "dbcddeedaacf")  (str.++  "ededfdabfcffabfbcabfeaadbeeddafaecbbcbd" G "dbcddeedaacf") ))
(assert (= (str.++  "ebffbfbeedaedeabeecebc" G "ddaeefffeefdfedfcebadadeadeab")  (str.++  "ebffbfbeedaedeabeecebc" G "ddaeefffeefdfedfcebadadeadeab") ))
(assert (= (str.++  "affabedadabefabcadbeccbaaadabfdafbfaaeebcbeffdeaacebbdf" "")  (str.++  "affabedadabefabca" G "cbaaadabfdafbfaaeebcbeffdeaacebbdf") ))
(assert (= (str.++  "ffdebeabacccfabcbeeffacadbecbfceeaedceeedafbcaafceeeaae" "")  (str.++  "ffdebeabacccfabcbeeffaca" G "bfceeaedceeedafbcaafceeeaae") ))
(assert (= (str.++  "daabefcbccebdeaebedbecdcfcccafbddfcdfdeecfcadfdecccfcda" "")  (str.++  "daabefcbccebdeaebe" G "dcfcccafbddfcdfdeecfcadfdecccfcda") ))
(assert (= (str.++  "acacaeecdffeddbdfdceafdafad" G "dabaececaaefeebcbeccbece")  (str.++  "acacaeecdffeddbdfdceafdafad" G "dabaececaaefeebcbeccbece") ))
(assert (= (str.++  "baededcfef" G "bcbdcaecedbafcaadfcdacacfbbdebcfeccebeecf")  (str.++  "baededcfef" G "bcbdcaecedbafcaadfcdacacfbbdebcfeccebeecf") ))
(assert (= (str.++  "adec" G "cafdedcfcabefbbddbdafcebedbcafbccfedddfefcecdbd")  (str.++  "adec" G "cafdedcfcabefbbddbdafcebedbcafbccfedddfefcecdbd") ))
(assert (= (str.++  "eacfcbafdccfefcaabccdeeecfabffbecccad" G "efcbfadbdbbbcf")  (str.++  "eacfcbafdccfefcaabccdeeecfabffbecccaddbecefcbfadbdbbbcf" "") ))
(assert (= (str.++  "cfdebebccbccebfeecaadaaecaafcabfca" G "ebbccfabcefdcebfe")  (str.++  "cfdebebccbccebfeecaadaaecaafcabfcadbecebbccfabcefdcebfe" "") ))
(assert (= (str.++  "eddadfebabbdcecea" G "bfdcaaedddefeccadbefdfafafacbafcdc")  (str.++  "eddadfebabbdceceadbecbfdcaaedddefeccadbefdfafafacbafcdc" "") ))
(assert (= (str.++  "aecfdaebfbbbedbaedcbbefaeaeaadc" G "efebeedbbfebfecbecff")  (str.++  "aecfdaebfbbbedbaedcbbefaeaeaadc" G "efebeedbbfebfecbecff") ))
(assert (= (str.++  "aeccfcaeafbcbadbeccaaedcefffbadeceeffaffbafcfdbadbedafd" "")  (str.++  "aeccfcaeafbcba" G "caaedcefffbadeceeffaffbafcfdbadbedafd") ))
(assert (= (str.++  "fddbaadaffdcdcafddcaaacddaedcbfbdde" G "beaafbfefefcddfd")  (str.++  "fddbaadaffdcdcafddcaaacddaedcbfbddedbecbeaafbfefefcddfd" "") ))
(assert (= (str.++  "fddfceaeffecdfba" G "aaeebbcfadbdfdcbffbbcaeaeebfafcabce")  (str.++  "fddfceaeffecdfba" G "aaeebbcfadbdfdcbffbbcaeaeebfafcabce") ))
(assert (= (str.++  "accfbddcbedbecabbdafdfebbddcdedcbeffbbbeacbfccbebeafcea" "")  (str.++  "accfbddcbe" G "abbdafdfebbddcdedcbeffbbbeacbfccbebeafcea") ))
(assert (= (str.++  "daadf" G "eeeedfcaebbddbfdbbdfeefdadbfbecdbdcfdecedaccdd")  (str.++  "daadf" G "eeeedfcaebbddbfdbbdfeefdadbfbecdbdcfdecedaccdd") ))
(assert (= (str.++  "dabbacdbaeeedafadcacfccfdbfcecbf" G "ddeaebbdefecdbcceef")  (str.++  "dabbacdbaeeedafadcacfccfdbfcecbf" G "ddeaebbdefecdbcceef") ))
(assert (= (str.++  "cdabfbdeefdd" G "aeccfeafceccfcbbafcfdaeeaceeabfafeccaac")  (str.++  "cdabfbdeefdddbecaeccfeafceccfcbbafcfdaeeaceeabfafeccaac" "") ))
(assert (= (str.++  "abdbecbbfcdcecfaaebbeaccdfcffadaadaaedeaecebbacfeefeeaa" "")  (str.++  "ab" G "bbfcdcecfaaebbeaccdfcffadaadaaedeaecebbacfeefeeaa") ))
(assert (= (str.++  "dcbfdadbfaffecea" F "efcabacefeabefde")  (str.++  "dcbfdadbfaffec" G "acefeabefde") ))
(assert (= (str.++  "aecfffebdfceefcfd" C "edfcabeebcbfcdcacddfccc")  (str.++  "aecfffeb" E "fccc") ))
(assert (= (str.++  "aa" F "eeacceeabafeddacccddbfffecdadcaacccaafccdacafbdfde")  (str.++  "aa" F "eeacceeabafeddacccddbfffecdadcaacccaafccdacafbdfde") ))
(assert (= (str.++  "fe" F "baeafcadfaeceaadbbefcfecffb" F "bceebdceedeffcbbdbba")  (str.++  "feabdbaeafcadfaeceaadbbefcfecffbabdbceebdceedeffcbbdbba" "") ))
(assert (= (str.++  "bfbcbbaccceabcbfaadcfabfaecdcfacdeedaaefefafeabeb" F "bde")  (str.++  "bfbcbbaccceabcbfaadcfabfaecdcfacdeedaaefefafeabebabdbde" "") ))
(assert (= (str.++  "ebbaebaecaccdbbbfcbdcebda" F "dfeefbffddaadddaeefcfaadbcf")  (str.++  "ebbaebaecaccdbbbfcbdcebdaabddfeefbffddaadddaeefcfaadbcf" "") ))
(assert (= (str.++  "beaeacbbeaebeeb" F "dbbddfaccaeaeccdfddcfbffefbbaccbdbbba")  (str.++  "beaeacbbeaebeebabddbbddfaccaeaeccdfddcfbffefbbaccbdbbba" "") ))
(assert (= (str.++  "bedbabcbeedccdeecaebfebeafabca" F "bcbaadccffbfaeedaddefd")  (str.++  "bedbabcbeedccdeecaebfebeafabcaabdbcbaadccffbfaeedaddefd" "") ))
(assert (= (str.++  "cdbfbceedbfbdd" F "faaebaebbefdddcaaaececbabfecfcbfecbace")  (str.++  "cdbfbceedbfbdd" F "faaebaebbefdddcaaaececbabfecfcbfecbace") ))
(assert (= (str.++  "efabffbbdfaeaecadbdfdddfcbbadcecfbcfefebdce" F "aaeebdfdd")  (str.++  "efabffbbdfaeaecadbdfdddfcbbadcecfbcfefebdceabdaaeebdfdd" "") ))
(assert (= (str.++  "eecfbbaaafcbceaefbafabacafbe" F F "abacdadddbbaeabdffaae")  (str.++  "eecfbbaaafcbceaefbafabacafbeabdabdabacdadddbbae" F "ffaae") ))
(assert (= (str.++  "cfbfaeaeaefccfbeafddbabfbbbaedbf" F "dcdaefddfdbdbdaaffcb")  (str.++  "cfbfaeaeaefccfbeafddbabfbbbaedbf" F "dcdaefddfdbdbdaaffcb") ))
(assert (= (str.++  "facfdd" F "effacefbfdabcefabfbdebddaedbabbdcfecdecfffffba")  (str.++  "facfddabdeffacefbfdabcefabfbdebddaedbabbdcfecdecfffffba" "") ))
(assert (= (str.++  "dbe" F "ddababafcceeefaedefdbecbadfcacfcafbdebbddbfafacda")  (str.++  "dbe" F "ddababafcceeefaedefdbecbadfcacfcafbdebbddbfafacda") ))
(assert (= (str.++  "acffcf" F "cefeedcfbbefdfeffaefdfbadfeaabcbafcfccfeaeffaf")  (str.++  "acffcfabdcefeedcfbbefdfeffaefdfbadfeaabcbafcfccfeaeffaf" "") ))
(assert (= (str.++  "fbdfadcebbdabaacbedeacafbbdedfecbbaecbfd" F "dbdbcaeddecb")  (str.++  "fbdfadcebbdabaacbedeacafbbdedfecbbaecbfd" F "dbdbcaeddecb") ))
(assert (= (str.++  "decccdabfcebaecfcbfdfdcccdaacd" F "ffbdcebdeacceedcfebfdc")  (str.++  "decccdabfcebaecfcbfdfdcccdaacdabdffbdcebdeacceedcfebfdc" "") ))
(assert (= (str.++  "faeaeecdccbbcbacccebbcd" F "fcdfcecaeaedfbdfcfbbdfbbdcefb")  (str.++  "faeaeecdccbbcbacccebbcdabdfcdfcecaeaedfbdfcfbbdfbbdcefb" "") ))
(assert (= (str.++  "cdfcabaabecfabdfdebefcabfcfddebbecbfcfadddaadcedfefbdfc" "")  (str.++  "cdfcabaabecf" F "fdebefcabfcfddebbecbfcfadddaadcedfefbdfc") ))
(assert (= (str.++  "ddbefeeaaba" F "cfbcedcbddcccfbbfafccccdacedfddbbcaecfbcf")  (str.++  "ddbefeeaabaabdcfbcedcbddcccfbbfafccccdacedfddbbcaecfbcf" "") ))
(assert (= (str.++  "eedcbeeeaedafadeaefcdcdddfbebabdbddeedaeceecaabadaeffae" "")  (str.++  "eedcbeeeaedafadeaefcdcdddfbeb" F "bddeedaeceecaabadaeffae") ))
(assert (= (str.++  "fedbeeadeeeacdaecffffdaacccbebeeaeadfabdedecbfcdcafcdca" "")  (str.++  "fedbeeadeeeacdaecffffdaacccbebeeaeadf" F "edecbfcdcafcdca") ))
(assert (= (str.++  "fbdcbdacdcff" F "ecbdebcfafdcaebcfdadbecbcffddbbcfefecbef")  (str.++  "fbdcbdacdcff" F "ecbdebcfafdcaebcfdadbecbcffddbbcfefecbef") ))
(assert (= (str.++  "cfaaabbcccdbafbaebccfbbfcdaddebbfcfaceddcefaabdeda" F "ed")  (str.++  "cfaaabbcccdbafbaebccfbbfcdaddebbfcfaceddcefa" F "eda" F "ed") ))
(assert (= (str.++  "abffaccfadbcafcafef" F "eccfdcfaddaadeccdafcdeadcaaaaeeac")  (str.++  "abffaccfadbcafcafef" F "eccfdcfaddaadeccdafcdeadcaaaaeeac") ))
(assert (= (str.++  "bbddffbfccffbbdadcdbafffdabbedbdaadeabdbddafefeebfefcfd" "")  (str.++  "bbddffbfccffbbdadcdbafffdabbedbdaade" F "bddafefeebfefcfd") ))
(assert (= (str.++  "ebbeddeadcccdaeccaafcaaeb" F "fdcccccebefadaadafcaebaeaac")  (str.++  "ebbeddeadcccdaeccaafcaaeb" F "fdcccccebefadaadafcaebaeaac") ))
(assert (= (str.++  "bcddffecebfeaedbeccaabbdbbdfffacecceecabfbcabfaafabdefc" "")  (str.++  "bcddffecebfeaedbeccaabbdbbdfffacecceecabfbcabfaaf" F "efc") ))
(assert (= (str.++  "ffafbbcafdbfadefeefdcefbbdbfcbaacc" F "cefccdfdeeedaafaeb")  (str.++  "ffafbbcafdbfadefeefdcefbbdbfcbaaccabdcefccdfdeeedaafaeb" "") ))
(assert (= (str.++  "bfceecfffdabcfaabddcaccbddadedafcefbfeaccdaffbdcbbccecf" "")  (str.++  "bfceecfffdabcfa" F "dcaccbddadedafcefbfeaccdaffbdcbbccecf") ))
(assert (= (str.++  "bcdafbaaadbdbcbdbefeebcbddacbeebeeedabbbfbbcb" F "bdbfabf")  (str.++  "bcdafbaaadbdbcbdbefeebcbddacbeebeeedabbbfbbcb" F "bdbfabf") ))
(assert (= (str.++  "facb" F "badcdebdededebdedfabaddecaefeabefaedfedffaecbbda")  (str.++  "facb" F "badcdebdededebdedfabaddecaefeabefaedfedffaecbbda") ))
(assert (= (str.++  "abfcaebaabeeefddabbff" F "aeeaafdbfbcdeebeecbafdaabecbdcb")  (str.++  "abfcaebaabeeefddabbffabdaeeaafdbfbcdeebeecbafdaabecbdcb" "") ))
(assert (= (str.++  "cddacabdddbebafdfbeacfbebcdfeccffbbdededfdccbcbebebdcbd" "")  (str.++  "cddac" F "ddbebafdfbeacfbebcdfeccffbbdededfdccbcbebebdcbd") ))
(assert (= (str.++  "fdbcbacbcddbdddfeadcccddbdddcbecacbabdfbccffcedefcbedad" "")  (str.++  "fdbcbacbcddbdddfeadcccddbdddcbecacb" F "fbccffcedefcbedad") ))
(assert (= (str.++  "acadafa" F "bbcabfdfbfecbdeffcdebeadcccfdececcceadcababbb")  (str.++  "acadafa" F "bbcabfdfbfecbdeffcdebeadcccfdececcceadcababbb") ))
(assert (= (str.++  "fefcdbedfeababdcaeeccdeefab" F "bebfdbadaaabdbffeffceddaa")  (str.++  "fefcdbedfeab" F "caeeccdeefababdbebfdbadaaabdbffeffceddaa") ))
(assert (= (str.++  "eddceccceb" F "fdfcfcbdbdefebbecbeefbaafcbdaceeaaedecdffc")  (str.++  "eddcecccebabdfdfcfcbdbdefebbecbeefbaafcbdaceeaaedecdffc" "") ))
(assert (= (str.++  "eaafdfae" F "aabfeabfcddadfdbdefacabffecefdbedbbdbbbdafcf")  (str.++  "eaafdfae" F "aabfeabfcddadfdbdefacabffecefdbedbbdbbbdafcf") ))
(assert (= (str.++  "bccdceeafefbbccdeebbdbcbbcfeedafebebffabffeeebfd" F "cbba")  (str.++  "bccdceeafefbbccdeebbdbcbbcfeedafebebffabffeeebfdabdcbba" "") ))
(assert (= (str.++  "ceedfddfcebcfdebfaceca" F "ccefedafeefaacbaacadbfbffddbee")  (str.++  "ceedfddfcebcfdebfacecaabdccefedafeefaacbaacadbfbffddbee" "") ))
(assert (= (str.++  "ffcaefdcfcdbfecbf" F "debfaeacbaeadeccefceceadcacdbbcaeac")  (str.++  "ffcaefdcfcdbfecbfabddebfaeacbaeadeccefceceadcacdbbcaeac" "") ))
(assert (= (str.++  "edabfeadbbefcbdabbececabbccacefcaccaa" F "efaffebdfeefeec")  (str.++  "edabfeadbbefcbdabbececabbccacefcaccaa" F "efaffebdfeefeec") ))
(assert (= (str.++  "a" F "baffaeefeeccfdcbaadcbffffaeeeeefeceaffcdadabcbebcfd")  (str.++  "aabdbaffaeefeeccfdcbaadcbffffaeeeeefeceaffcdadabcbebcfd" "") ))
(assert (= (str.++  "efeaeeadbaefdcbecccbccebdbbcfffcafceaaaabddaacfbfeccbfa" "")  (str.++  "efeaeeadbaefdcbecccbccebdbbcfffcafceaaa" F "daacfbfeccbfa") ))
(assert (= (str.++  "caecdeefbaeeeddfedf" F "fabacbecbad" F "fbfcacbbfaeeeabbdff")  (str.++  "caecdeefbaeeeddfedfabdfabacbecbad" F "fbfcacbbfaeeeabbdff") ))
(assert (= (str.++  "dacdccbcbaabdfffacaecfdfbbddaffdeedeffedcddeddfbebdbaec" "")  (str.++  "dacdccbcba" F "fffacaecfdfbbddaffdeedeffedcddeddfbebdbaec") ))
(assert (= (str.++  "aeabfbabbaeddbfddbabdcedcecfcdefbcbbfaabafbccddddaeeeff" "")  (str.++  "aeabfbabbaeddbfddb" F "cedcecfcdefbcbbfaabafbccddddaeeeff") ))
(assert (= (str.++  "adadfeefddfcdecdbeacebddedebc" F "cdeeeaffeafddffecbdcfdf")  (str.++  "adadfeefddfcdecdbeacebddedebcabdcdeeeaffeafddffecbdcfdf" "") ))
(assert (= (str.++  "deafaacdddfdcedbabcbfabaabbdebffefeaceeaeaea" F "fdfcedef")  (str.++  "deafaacdddfdcedbabcbfabaabbdebffefeaceeaeaeaabdfdfcedef" "") ))
(assert (= (str.++  "dbaeafaacacffeedebeafbfaeeafeabdfbfcfdbcccdadffabaaebae" "")  (str.++  "dbaeafaacacffeedebeafbfaeeafe" F "fbfcfdbcccdadffabaaebae") ))
(assert (= (str.++  "ebcefcebfcefadecdfeaeaccdcddccfcefaaed" F "cfacfdfdfeadfd")  (str.++  "ebcefcebfcefadecdfeaeaccdcddccfcefaaed" F "cfacfdfdfeadfd") ))
(assert (= (str.++  "bfddacfbeabbe" F "efcfededbfaceafcaeecdedeacccbfcefcadbff")  (str.++  "bfddacfbeabbe" F "efcfededbfaceafcaeecdedeacccbfcefcadbff") ))
(assert (= (str.++  "bbadfafeddbcbeecbbfeedcacaccdc" F "debfeaebabfefbedefdece")  (str.++  "bbadfafeddbcbeecbbfeedcacaccdc" F "debfeaebabfefbedefdece") ))
(assert (= (str.++  "fecacbabbefedfddefeacaeaacaeebeafbdffcaefacfceadac" F "af")  (str.++  "fecacbabbefedfddefeacaeaacaeebeafbdffcaefacfceadac" F "af") ))
(assert (= (str.++  "edecaddaacdfddbecdbaafebcefedbececafececfdba" F "bcdaabec")  (str.++  "edecaddaacdfddbecdbaafebcefedbececafececfdbaabdbcdaabec" "") ))
(assert (= (str.++  "eeacfccfcbdcbafddedfebefbdfdbcededbcdccdfbddeabeab" F "ff")  (str.++  "eeacfccfcbdcbafddedfebefbdfdbcededbcdccdfbddeabeababdff" "") ))
(assert (= (str.++  "abeddfdccffddaaaafaaddaecbfdbbcbdeadebafcecb" F "feaccfcc")  (str.++  "abeddfdccffddaaaafaaddaecbfdbbcbdeadebafcecbabdfeaccfcc" "") ))
(assert (= (str.++  "dfaaaab" F "dadccadfffabebdaffbefedbdfceddbbacecbecfdedda")  (str.++  "dfaaaab" F "dadccadfffabebdaffbefedbdfceddbbacecbecfdedda") ))
(assert (= (str.++  "dbfefbaabeaebdbcdfcad" F "ccdeeaaebbedfeefadcfecdbccfceba")  (str.++  "dbfefbaabeaebdbcdfcadabdccdeeaaebbedfeefadcfecdbccfceba" "") ))
(assert (= (str.++  "dffddabfedbbdebdaabedbaefdecaafbadcdadda" F "ebaccafeedec")  (str.++  "dffddabfedbbdebdaabedbaefdecaafbadcdaddaabdebaccafeedec" "") ))
(assert (= (str.++  "aceccbebaceeebcadcfcdedcccfbcdceddedfce" F "faefdcedfadec")  (str.++  "aceccbebaceeebcadcfcdedcccfbcdceddedfce" F "faefdcedfadec") ))
(assert (= (str.++  "abfefdbbcbaff" F "beaeacccbedcaddbecfcafcaed" F "aaffbeadfc")  (str.++  "abfefdbbcbaffabdbeaeacccbedcaddbecfcafcaedabdaaffbeadfc" "") ))
(assert (= (str.++  "eaadbadefebccadfdfeeacbecaabbebcabdafcdefccbfcabcdfdede" "")  (str.++  "eaadbadefebccadfdfeeacbecaabbebc" F "afcdefccbfcabcdfdede") ))
(assert (= (str.++  "faebdcafaacfafadfeacbfdedbbfaabdaabbeadfacbdeacdebbfefe" "")  (str.++  "faebdcafaacfafadfeacbfdedbbfa" F "aabbeadfacbdeacdebbfefe") ))
(assert (= (str.++  "abbeddafccdaffddddedcfebbade" F "afeafebfbbfaedfffafdcbfa")  (str.++  "abbeddafccdaffddddedcfebbadeabdafeafebfbbfaedfffafdcbfa" "") ))
(assert (= (str.++  "aeafdabbcedcebdaeacddbbc" F "bcafddccebceccaccfaedfcbeadc")  (str.++  "aeafdabbcedcebdaeacddbbcabdbcafddccebceccaccfaedfcbeadc" "") ))
(assert (= (str.++  "dabdbfcbcacdafceaaaabedebedcbbdcaaacededfeffcddabadcacd" "")  (str.++  "d" F "bfcbcacdafceaaaabedebedcbbdcaaacededfeffcddabadcacd") ))
(assert (= (str.++  "cbaddaecbdecbdfeab" F "fecbbdfadeefcbcbddcccfedbeffbfbbde")  (str.++  "cbaddaecbdecbdfeab" F "fecbbdfadeefcbcbddcccfedbeffbfbbde") ))
(assert (= (str.++  "acffadcd" F "daefcffdeabefaffbbcafdacbbfceeeffeddcfcdceef")  (str.++  "acffadcdabddaefcffdeabefaffbbcafdacbbfceeeffeddcfcdceef" "") ))
(assert (= (str.++  "aeddfecfbabdbcafbeefafaeebffbdfcdbeaedeeacdcccdfcbcaaea" "")  (str.++  "aeddfecfb" F "bcafbeefafaeebffbdfcdbeaedeeacdcccdfcbcaaea") ))
(assert (= (str.++  "bdbcedafeadbdebdbbefcaececcdeabeadbcebfababfbbabddcebfa" "")  (str.++  "bdbcedafeadbdebdbbefcaececcdeabeadbcebfababfbb" F "dcebfa") ))
(assert (= (str.++  "bcbeabdefceeecccdfddeeeebedccfdcefefbcfaacffcebdabdcdfc" "")  (str.++  "bcbeabdefceeecccdfddeeeebedccfdcefefbcfaacffcebd" F "cdfc") ))
(assert (= (str.++  "ddacafefaeabbbfafaadffffcbfadefaa" F "bbfcaacdcdbdbadabde")  (str.++  "ddacafefaeabbbfafaadffffcbfadefaaabdbbfcaacdcdbdbadabde" "") ))
(assert (= (str.++  "ddbfaeacdcabdcedbfcdbadaffdadeabfddcddeabefdbfcbdffccfc" "")  (str.++  "ddbfaeacdc" F "cedbfcdbadaffdadeabfddcddeabefdbfcbdffccfc") ))
(assert (= (str.++  "bfedeafedecacaeccfebbcedaece" F "ebdbaddeacadbbc" F "eefedd")  (str.++  "bfedeafedecacaeccfebbcedaece" F "ebdbaddeacadbbc" F "eefedd") ))
(assert (= (str.++  "bc" F "eefdbcbacdfdafabfecdcddcaddcaacaeaccabfacafafadffb")  (str.++  "bc" F "eefdbcbacdfdafabfecdcddcaddcaacaeaccabfacafafadffb") ))
(assert (= (str.++  "bbeedef" F "edcdedbeaceccebbfcafcdfbbeeeefdfdeadbdefeecaf")  (str.++  "bbeedefabdedcdedbeaceccebbfcafcdfbbeeeefdfdeadbdefeecaf" "") ))
(assert (= (str.++  "aefdbbadcdacffffabdfacecaebdcdaccfabacaafedadeaeffaebdb" "")  (str.++  "aefdbbadcdacffff" F "facecaebdcdaccfabacaafedadeaeffaebdb") ))
(assert (= (str.++  "efbecccffdafcaabcacedaabbfefdecdaddeefcca" F "ecbedaaedaf")  (str.++  "efbecccffdafcaabcacedaabbfefdecdaddeefcca" F "ecbedaaedaf") ))
(assert (= (str.++  "bcfcfeef" F "dbbdfeedecbbfeddfaecbbbddaaccecefdbebfaa" F "f")  (str.++  "bcfcfeefabddbbdfeedecbbfeddfaecbbbddaaccecefdbebfaaabdf" "") ))
(assert (= (str.++  "cadafdfdfacfabcbeebfececbebccafebf" F "faabeeebadfcfcbcde")  (str.++  "cadafdfdfacfabcbeebfececbebccafebf" F "faabeeebadfcfcbcde") ))
(assert (= (str.++  "fbc" F "bdfdbfcdaaddfdcbabcecefcbceedcddcbfebaeca" F "adbdd")  (str.++  "fbcabdbdfdbfcdaaddfdcbabcecefcbceedcddcbfebaeca" F "adbdd") ))
(assert (= (str.++  "cecefcef" F "adacabcedafdcebcdfdaedeecdeeaecbabbbdfcecbff")  (str.++  "cecefcefabdadacabcedafdcebcdfdaedeecdeeaecbabbbdfcecbff" "") ))
(assert (= (str.++  "dcbdacaafbdaacababdffcbecbaaacfcbbfbbcbddaabacdadfdddba" "")  (str.++  "dcbdacaafbdaacab" F "ffcbecbaaacfcbbfbbcbddaabacdadfdddba") ))
(assert (= (str.++  "efaacecff" F "aaedfdcccdacfdfecebeabdcb" F "acfbeeacfaabcbb")  (str.++  "efaacecffabdaaedfdcccdacfdfecebe" F "cb" F "acfbeeacfaabcbb") ))
(assert (= (str.++  "cfcdbabccffdcfcefabcdacdcddadffddeceedcceaa" F "adbbfbbac")  (str.++  "cfcdbabccffdcfcefabcdacdcddadffddeceedcceaa" F "adbbfbbac") ))
(assert (= (str.++  "eabecddcbdedfdbdaaccaabedafedcecabecefdceeffcea" F "fddef")  (str.++  "eabecddcbdedfdbdaaccaabedafedcecabecefdceeffceaabdfddef" "") ))
(assert (= (str.++  "bbdbdffceeeabbeeefc" F "dcfbadccfabfdedcffffaabffddcacabf")  (str.++  "bbdbdffceeeabbeeefc" F "dcfbadccfabfdedcffffaabffddcacabf") ))
(assert (= (str.++  "bbadacfddabbbdcadbaabebacfcabbedadbdbfd" F "fecdacbbdefdb")  (str.++  "bbadacfddabbbdcadbaabebacfcabbedadbdbfdabdfecdacbbdefdb" "") ))
(assert (= (str.++  "bcfcbddadffddacffeeeedcdbbeafeadcbbbdfbecabdabccdcaabeb" "")  (str.++  "bcfcbddadffddacffeeeedcdbbeafeadcbbbdfbec" F "abccdcaabeb") ))
(assert (= (str.++  F "abedeadbbfeddceadeedaefbdabedfaeaedebcedbffbecafbace" "")  (str.++  "abdabedeadbbfeddceadeedaefbdabedfaeaedebcedbffbecafbace" "") ))
(assert (= (str.++  "fcdcdbbeeaccbcfecfddddabebcdfca" F "edfecffecbccfcacbddbc")  (str.++  "fcdcdbbeeaccbcfecfddddabebcdfcaabdedfecffecbccfcacbddbc" "") ))
(assert (= (str.++  "fdadedfacfddefbfcaedbfcddfdcfbeb" F "cfdaeafeafaebffcbffe")  (str.++  "fdadedfacfddefbfcaedbfcddfdcfbebabdcfdaeafeafaebffcbffe" "") ))
(assert (= (str.++  "bdddcfcaefaedddfddfdaecdabfdbfabbfdbcbcccddedf" F "eabaec")  (str.++  "bdddcfcaefaedddfddfdaecdabfdbfabbfdbcbcccddedf" F "eabaec") ))
(assert (= (str.++  "ebfceddedabbafcabbadecfcbcebfacfbebdddcbdfbefddfeeb" F "d")  (str.++  "ebfceddedabbafcabbadecfcbcebfacfbebdddcbdfbefddfeeb" F "d") ))
(assert (= (str.++  "dcaafbcadbabbaadddfbdcbddedceacedadabdfddafbaaafcfacdbf" "")  (str.++  "dcaafbcadbabbaadddfbdcbddedceacedad" F "fddafbaaafcfacdbf") ))
(assert (= (str.++  "cfbf" F "efbcadffdfdafcddafebbdcccbdaecccbdfcaeddeeadbedd")  (str.++  "cfbf" F "efbcadffdfdafcddafebbdcccbdaecccbdfcaeddeeadbedd") ))
(assert (= (str.++  "deddcfbafdbebaecabdebecddabbbaebadabacaedaeaaadbdfddfdc" "")  (str.++  "deddcfbafdbebaec" F "ebecddabbbaebadabacaedaeaaadbdfddfdc") ))
(assert (= (str.++  "eacedfbeafecddfeebaabababefddee" F "aaceedcefefefcfefebab")  (str.++  "eacedfbeafecddfeebaabababefddeeabdaaceedcefefefcfefebab" "") ))
(assert (= (str.++  "eadfddbfaeccfdafeecbdaedefdbedbbaeebfbfededefa" F "fbedac")  (str.++  "eadfddbfaeccfdafeecbdaedefdbedbbaeebfbfededefa" F "fbedac") ))
(assert (= (str.++  "aaedfea" F "cccdfaadbabedaccebbdeaaddfcdddacfedfdfdcebabc")  (str.++  "aaedfea" F "cccdfaadbabedaccebbdeaaddfcdddacfedfdfdcebabc") ))
(assert (= (str.++  "ebfadeeccbcedbccaddebfaffacfbbcadadbfedcdaaabddefeabacc" "")  (str.++  "ebfadeeccbcedbccaddebfaffacfbbcadadbfedcdaa" F "defeabacc") ))
(assert (= (str.++  "faeadceeebdddffaebdbaddebaacbbfabdaadcdabcaaafdfdcfeabd" "")  (str.++  "faeadceeebdddffaebdbaddebaacbbf" F "aadcdabcaaafdfdcfeabd") ))
(assert (= (str.++  "bcaafdaacebccdecbabaaeebedeedefbdba" F "acbeacebdaaceddfd")  (str.++  "bcaafdaacebccdecbabaaeebedeedefbdba" F "acbeacebdaaceddfd") ))
(assert (= (str.++  "afaefaacadfccdddfaedfeddbfa" F "deedcaedaebbcbceedcfdbdbc")  (str.++  "afaefaacadfccdddfaedfeddbfa" F "deedcaedaebbcbceedcfdbdbc") ))
(assert (= (str.++  "bcfebfedabdfbbbdcddbfbfcdcbdfaeafdbdedbcdcbaccdcafadfba" "")  (str.++  "bcfebfed" F "fbbbdcddbfbfcdcbdfaeafdbdedbcdcbaccdcafadfba") ))
(assert (= (str.++  "fedeeaafccfdaccbcdcbcdfceaaccdcfdbaadacbfeafc" F "ceddeec")  (str.++  "fedeeaafccfdaccbcdcbcdfceaaccdcfdbaadacbfeafc" F "ceddeec") ))
(assert (= (str.++  "dcbddeabacbfadeabcefcadbadbedacdcacccddccdcadcccafc" F "d")  (str.++  "dcbddeabacbfadeabcefcadbadbedacdcacccddccdcadcccafc" F "d") ))
(assert (= (str.++  "bdfdfccbccdaeeabddadfeabfafabcccfffcafacdbcacfbd" F "eedc")  (str.++  "bdfdfccbccdaeeabddadfeabfafabcccfffcafacdbcacfbd" F "eedc") ))
(assert (= (str.++  "ebfcfaafdbdadbcabfafeebebceddccbbaebabdceddbfbeaacfdadb" "")  (str.++  "ebfcfaafdbdadbcabfafeebebceddccbbaeb" F "ceddbfbeaacfdadb") ))
(assert (= (str.++  F "fbebbdedcfcefeefafbfbeeedfefecbbebfeffcebabdfcdfcdae" "")  (str.++  "abdfbebbdedcfcefeefafbfbeeedfefecbbebfeffcebabdfcdfcdae" "") ))
(assert (= (str.++  "fcdcaccfcbefcddcbceefffbcbbbfeba" F "ffaccfbfaffbbdfcdbde")  (str.++  "fcdcaccfcbefcddcbceefffbcbbbfebaabdffaccfbfaffbbdfcdbde" "") ))
(assert (= (str.++  "dcd" F "fdaecffbbebbdadcdcfabcccacabafbdebfdccaefdfbffefb")  (str.++  "dcd" F "fdaecffbbebbdadcdcfabcccacabafbdebfdccaefdfbffefb") ))
(assert (= (str.++  "dccaafabaabccbacbaaddcbdca" F "bfddddcabcbbdcadcadbbcafae")  (str.++  "dccaafabaabccbacbaaddcbdcaabdbfddddcabcbbdcadcadbbcafae" "") ))
(assert (= (str.++  "dbfceacccaacccddfbfceeccb" F "ebffeaeadcaaafffcfecbfaeabc")  (str.++  "dbfceacccaacccddfbfceeccbabdebffeaeadcaaafffcfecbfaeabc" "") ))
(assert (= (str.++  "dffecccebbaeaccedaeeacadaea" F "baecccecafcfefafaebccbfaa")  (str.++  "dffecccebbaeaccedaeeacadaeaabdbaecccecafcfefafaebccbfaa" "") ))
(assert (= (str.++  "acfeaefdd" F "dbbdeabfcaeabdafedbcdeecddddcfaaadabaaedced")  (str.++  "acfeaefddabddbbdeabfcaeabdafedbcdeecddddcfaaadabaaedced" "") ))
(assert (= (str.++  "ddcbdbcaaacfddaaaedcedcceaddacacadccffe" F "cdddfdafdebbb")  (str.++  "ddcbdbcaaacfddaaaedcedcceaddacacadccffeabdcdddfdafdebbb" "") ))
(assert (= (str.++  "bbdbccecdbbffaedeafcdffdabdcffdacaebaffdaadcffefadecdda" "")  (str.++  "bbdbccecdbbffaedeafcdffd" F "cffdacaebaffdaadcffefadecdda") ))
(assert (= (str.++  "dfededcddeaadfddbeedbfadfcedbbbdbc" F "eeffdfdfefbbedcafe")  (str.++  "dfededcddeaadfddbeedbfadfcedbbbdbcabdeeffdfdfefbbedcafe" "") ))
(assert (= (str.++  "dceec" F "bfdbbcbccafccffabeedbedfbccbdcbedcfedfeafaeeabb")  (str.++  "dceec" F "bfdbbcbccafccffabeedbedfbccbdcbedcfedfeafaeeabb") ))
(assert (= (str.++  "eaabebafaacbacfae" F "dbaeddefecebfcbffcffdffaeacfffdbcdb")  (str.++  "eaabebafaacbacfae" F "dbaeddefecebfcbffcffdffaeacfffdbcdb") ))
(assert (= (str.++  "bcbdceabcbbafbcaedecddbfdaadbcbbbdabddfbbdeadaeacdfafdd" "")  (str.++  "bcbdceabcbbafbcaedecddbfdaadbcbbbd" F "dfbbdeadaeacdfafdd") ))
(assert (= (str.++  "abadebcbfbffdbcaadeedadcaccbdeedca" F "bfeffcbbefeaebeadf")  (str.++  "abadebcbfbffdbcaadeedadcaccbdeedca" F "bfeffcbbefeaebeadf") ))
(assert (= (str.++  "cbcbfedfeaddbacfdaadeefddbdedbcabfadbccfabdcfefaafeeeae" "")  (str.++  "cbcbfedfeaddbacfdaadeefddbdedbcabfadbccf" F "cfefaafeeeae") ))
(assert (= (str.++  "dbdaeeafabedadcfcefddefdb" F "ddfdccdefaaaefcccaabcdaebcc")  (str.++  "dbdaeeafabedadcfcefddefdbabdddfdccdefaaaefcccaabcdaebcc" "") ))
(assert (= (str.++  "ebdedbfcbbedfeaebdebcefbffedabfbadbdd" F "dbaebbcbcecdaec")  (str.++  "ebdedbfcbbedfeaebdebcefbffedabfbadbddabddbaebbcbcecdaec" "") ))
(assert (= (str.++  "edbecbeeeefeeaecebbdacdabacfefecbcbbbf" F "dceedcfaefbeac")  (str.++  "edbecbeeeefeeaecebbdacdabacfefecbcbbbf" F "dceedcfaefbeac") ))
(assert (= (str.++  "fee" F "ceccdcdecbdaceacdfdfedfdbaebefbbcbadcbedbceabbbff")  (str.++  "feeabdceccdcdecbdaceacdfdfedfdbaebefbbcbadcbedbceabbbff" "") ))
(assert (= (str.++  "bdacbbdaceccddaccdcdadbbcdeaadfdbeaebdabdedbbcbbeadebcb" "")  (str.++  "bdacbbdaceccddaccdcdadbbcdeaadfdbeaebd" F "edbbcbbeadebcb") ))
(assert (= (str.++  "bfafcddfdeccccdabecafaa" F "edfcbdacbfcedafafdddbbebaaeab")  (str.++  "bfafcddfdeccccdabecafaaabdedfcbdacbfcedafafdddbbebaaeab" "") ))
(assert (= (str.++  "efcfefdacffcfbedbceaeabdbdbbefbdfaedeeeccacdddafcabeacb" "")  (str.++  "efcfefdacffcfbedbceae" F "bdbbefbdfaedeeeccacdddafcabeacb") ))
(assert (= (str.++  "bbdfcefddcfadceecdcaedebacfdcaecefceccd" F "caeafdcbcdfaa")  (str.++  "bbdfcefddcfadceecdcaedebacfdcaecefceccd" F "caeafdcbcdfaa") ))
(check-sat)
(get-model)
